
Gurobi 9.1.2 (win64, Java) logging started Tue Nov  9 15:36:36 2021

Academic license - for non-commercial use only - expires 2022-10-30
Gurobi Optimizer version 9.1.2 build v9.1.2rc0 (win64)
Thread count: 6 physical cores, 12 logical processors, using up to 12 threads
Optimize a model with 450 rows, 45000 columns and 90000 nonzeros
Model fingerprint: 0x95ad0999
Variable types: 0 continuous, 45000 integer (45000 binary)
Coefficient statistics:
  Matrix range     [1e+00, 1e+03]
  Objective range  [1e+01, 1e+03]
  Bounds range     [1e+00, 1e+00]
  RHS range        [1e+00, 1e+03]
Found heuristic solution: objective 87888.000000
Presolve removed 120 rows and 22154 columns
Presolve time: 0.30s
Presolved: 330 rows, 22846 columns, 45686 nonzeros
Found heuristic solution: objective 88036.000000
Variable types: 0 continuous, 22846 integer (22846 binary)
Presolve removed 0 rows and 4 columns
Presolved: 330 rows, 22842 columns, 45682 nonzeros


Root relaxation: objective 8.864925e+04, 270 iterations, 0.02 seconds

    Nodes    |    Current Node    |     Objective Bounds      |     Work
 Expl Unexpl |  Obj  Depth IntInf | Incumbent    BestBd   Gap | It/Node Time

     0     0 88649.2513    0    1 88036.0000 88649.2513  0.70%     -    0s
H    0     0                    88137.000000 88649.2513  0.58%     -    0s
H    0     0                    88140.000000 88649.2513  0.58%     -    0s

Cutting planes:
  Cover: 1

Explored 1 nodes (3045 simplex iterations) in 0.60 seconds
Thread count was 12 (of 12 available processors)

Solution count 4: 88140 88137 88036 87888 

Optimal solution found (tolerance 1.00e-04)
Best objective 8.814000000000e+04, best bound 8.814000000000e+04, gap 0.0000%
